(set-logic QF_S)
(declare-fun A () String)
(assert (= (str.++  "aaddcccddaadbdbad" A "bbcddcbbbccc")  (str.++  "aaddcccddaadbdbad" A "bbcddcbbbccc") ))
(assert (= (str.++  "b" A "acabcaccbbcababcbdddaddabdbadacdddbbdbbabbacdacada")  (str.++  "bdbbaacccacabcaccbbcababcbdddaddabdbadacdddbbdbbabbacdacada" "") ))
(assert (= (str.++  "bdbbdaacabccadbdacabacbabbb" A "ccbacdaaabbacdabacbcbaab")  (str.++  "bdbbdaacabccadbdacabacbabbbdbbaacccccbacdaaabbacdabacbcbaab" "") ))
(assert (= (str.++  "cabccbadddbaa" A "dcccdccbdabbbbadcdabbcaccbdddcddddabcc")  (str.++  "cabccbadddbaadbbaacccdcccdccbdabbbbadcdabbcaccbdddcddddabcc" "") ))
(assert (= (str.++  "ddbbdbbd" A "bc" A "cbacdbadbbbaadddcdbcdbaaabadcbddd" A "dacb" A "bacc")  (str.++  "ddbbdbbd" A "bc" A "cbacdbadbbbaadddcdbcdbaa" A "adcbdddabdacbabbacc") ))
(assert (= (str.++  "cdc" A "abacacdadbbcbbd" A "cccaaccad" A "cbcdbabddbadaddcaccbbacacc")  (str.++  "cdc" A A "acacdadbbcbbd" A "cccaaccad" A "cbcdb" A "ddbadaddcaccbbacacc") ))
(assert (= (str.++  "badcbddadadbccbadaccbbaaddcacdaadcbddcbbdddcbddbaacd" A "dbbab")  (str.++  "badcbddadadbccbadaccbbaaddcacdaadcbddcbbdddcbddbaacd" A "dbbab") ))
(assert (= (str.++  "adcb" A "bdabbbddbdcccaadcdaacaabbdbbaabccccbabbbdbbc" A "abaadba")  (str.++  "adcbabbd" A "bbddbdcccaadcdaaca" A "bdbba" A "ccccbabbbdbbcab" A "aadba") ))
(assert (= (str.++  "aadcbccaaacadbcdabccdddaccddcbbaddccddddcadacbbcdcaacdbacdb" "")  (str.++  "aadcbccaaacadbcd" A "ccdddaccddcbbaddccddddcadacbbcdcaacdbacdb") ))
(assert (= (str.++  "ada" A "caadbbdbbdbbddbabdcabbcdaaadcdbccccaabddbddadab" A "cbabd")  (str.++  "ada" A "caadbbdbbdbbddbabdcabbcdaaadcdbccccaabddbddad" A "abcbabd") ))
(assert (= (str.++  "bdaadd" A "dabcbba" A "cdacbcbddbadadddbcdabaddccddaabbacaacbcbcc")  (str.++  "bdaadd" A "d" A "cbba" A "cdacbcbddbadadddbcdabaddccdda" A "bacaacbcbcc") ))
(assert (= (str.++  "cbcdcdcbabaacbbcaacacadacaddcbaaacbddbddbc" A "a" A "ccb" A A A "dbd")  (str.++  "cbcdcdcbabaacbbcaacacadacaddcbaaacbddbddbc" A "a" A "ccbab" A A "dbd") ))
(assert (= (str.++  "aadadba" A "abbaccacdacabcacccda" A "cccaacbcacbcaabbccbccccbcadb")  (str.++  "aadadba" A "abbaccacdac" A "cacccda" A "cccaacbcacbca" A "bccbccccbcadb") ))
(assert (= (str.++  "acaacdbbdbdacddadbbbabacdbaddbbaccbabdaddcdbdcbcacacda" A "ddb")  (str.++  "acaacdbbdbdacddadbbbabacdbaddbbaccb" A "daddcdbdcbcacacda" A "ddb") ))
(assert (= (str.++  "ccdadddadadcdbbadcacdcaaababcbdbddcccdbacbcacaadbcadccccbca" "")  (str.++  "ccdadddadadcdbbadcacdcaaab" A "cbdbddcccdbacbcacaadbcadccccbca") ))
(assert (= (str.++  "bacacccbbdbccb" A "aaabcbbdaacddcbbdabdbdcacaccadbbdc" A "dbdaada")  (str.++  "bacacccbbdbccbabaaabcbbdaacddcbbd" A "dbdcacaccadbbdcabdbdaada") ))
(assert (= (str.++  "cbadbdadc" A "acadaadaacccbadbdabcba" A "bbbcaddbbbc" A "bbacdbccaad")  (str.++  "cbadbdadcabacadaadaacccbadbd" A "cba" A "bbbcaddbbbcabbbacdbccaad") ))
(assert (= (str.++  "addddcbccbadcacbbcbaddcadca" A "dadabcacdcddbcccdcdbbcaadcbdcd")  (str.++  "addddcbccbadcacbbcbaddcadcaabdad" A "cacdcddbcccdcdbbcaadcbdcd") ))
(assert (= (str.++  "aabbaccaadcddacccaddccabccdbabaaccadbcdbbddbaddddbdcadbddad" "")  (str.++  "aabbaccaadcddacccaddcc" A "ccdb" A "aaccadbcdbbddbaddddbdcadbddad") ))
(assert (= (str.++  "bdcaddacbcbccacbcdbccbbcadb" A A "cccddbcdda" A "acdcbbcadcbbcabd")  (str.++  "bdcaddacbcbccacbcdbccbbcadbab" A "cccddbcdda" A "acdcbbcadcbbcabd") ))
(assert (= (str.++  "acdac" A "acbaaacadccac" A "cbbcdbbcbdbdcbbcdcbdbdbaddbddadbd" A "bb")  (str.++  "acdacabacbaaacadccac" A "cbbcdbbcbdbdcbbcdcbdbdbaddbddadbd" A "bb") ))
(assert (= (str.++  "cabaddacdbbaaddabddddacccacccccddcddacddaa" A "baca" A "abdabbccb")  (str.++  "c" A "addacdbbaadd" A "ddddacccacccccddcddacddaa" A "baca" A "abd" A "bccb") ))
(assert (= (str.++  "c" A "bacbdaba" A "ccbcdbbdbcdcbcbdaddccddbddbbbbbabaaccca" A "dadad")  (str.++  "cabbacbd" A "aabccbcdbbdbcdcbcbdaddccddbddbbbbb" A "aaccca" A "dadad") ))
(assert (= (str.++  "cbddcccaddbadaaac" A "cc" A "dd" A "cccbbbadbbccbccbcc" A "cdcad" A "cbcca")  (str.++  "cbddcccaddbadaaacabcc" A "ddabcccbbbadbbccbccbcc" A "cdcad" A "cbcca") ))
(assert (= (str.++  A "aacacdcadbdaaadadbacabccbcdbccd" A "dcaccbbdaaacbaddbbddbddc")  (str.++  "abaacacdcadbdaaadadbacabccbcdbccd" A "dcaccbbdaaacbaddbbddbddc") ))
(assert (= (str.++  "bdcaaccdaadcbdccacbddccbd" A "cccabcddacbacccaccdaaaadbbdadb" A)  (str.++  "bdcaaccdaadcbdccacbddccbd" A "cccabcddacbacccaccdaaaadbbdadbab") ))
(assert (= (str.++  "acaaad" A "bbbddccdbaddbbdcbbbcbacbaaaaad" A "dbbdadcbbcabdabcaca")  (str.++  "acaaadabbbbddccdbaddbbdcbbbcbacbaaaaadabdbbdadcbbcabd" A "caca") ))
(assert (= (str.++  "bcdbddbadcacdcdaaadccaccddadb" A "bd" A "adccdbacdbb" A "cdddadcbccc")  (str.++  "bcdbddbadcacdcdaaadccaccddadb" A "bdabadccdbacdbb" A "cdddadcbccc") ))
(assert (= (str.++  "aa" A "adbccccdabbcbcbdbbdbcaacbbddccabcdcb" A "aacabccabda" A "bcba")  (str.++  "aaabadbccccd" A "bcbcbdbbdbcaacbbddccabcdcb" A "aac" A "ccabdaabbcba") ))
(assert (= (str.++  "bdcbbcbb" A "ddcdbbcccaddcddcaaacdcbddccaccaacbbcaddcbaadccdbd")  (str.++  "bdcbbcbbabddcdbbcccaddcddcaaacdcbddccaccaacbbcaddcbaadccdbd" "") ))
(assert (= (str.++  "dbbdcacabcdbccaddbdaccbbccccddbdacacd" A "cbcddbcdcbabccccc" A "a")  (str.++  "dbbdcac" A "cdbccaddbdaccbbccccddbdacacdabcbcddbcdcbabcccccaba") ))
(assert (= (str.++  "bdbbccccddaddbdccacddaccccaddcabdaccdcd" A "cddbbcada" A "bdaacbd")  (str.++  "bdbbccccddaddbdccacddaccccaddc" A "daccdcd" A "cddbbcada" A "bdaacbd") ))
(assert (= (str.++  "dccdcaaddcdccbddcbabdbdadadbccabadbcbaccdbadbddbbdcdbadacaa" "")  (str.++  "dccdcaaddcdccbddcb" A "dbdadadbccabadbcbaccdbadbddbbdcdbadacaa") ))
(assert (= (str.++  "bbb" A "bcdccdabbabdacba" A "bbbdadacdccddddccccacaacbbdcb" A "dbcda")  (str.++  "bbbabbcdccd" A "b" A "dacbaabbbbdadacdccddddccccacaacbbdcbabdbcda") ))
(assert (= (str.++  "bbbadbbbb" A "bccdbacdbddadaacaadbbdcaddacbacaaddd" A "caccdbdcca")  (str.++  "bbbadbbbbabbccdbacdbddadaacaadbbdcaddacbacaaddd" A "caccdbdcca") ))
(assert (= (str.++  "cdaaccbdaccbddbcbbb" A "adccabcbdcc" A "a" A "ddbbadadccddbbddbca" A "a")  (str.++  "cdaaccbdaccbddbcbbbabadccabcbdccaba" A "ddbbadadccddbbddbcaaba") ))
(assert (= (str.++  "adcccdbdaad" A "abbbbdbacabcccdcdcdddccdaaacadaad" A "bcadaacbcbc")  (str.++  "adcccdbdaad" A "abbbbdbacabcccdcdcdddccdaaacadaad" A "bcadaacbcbc") ))
(assert (= (str.++  "aaaacaadcbdbcddbbcaaccbbadccccbbcdcbaad" A "bcacddcccbccaccadd")  (str.++  "aaaacaadcbdbcddbbcaaccbbadccccbbcdcbaad" A "bcacddcccbccaccadd") ))
(assert (= (str.++  "bdcdac" A "ddcddbadabdcbabbdbaddddbcadaacbccdacbc" A "cbacaca" A "dc")  (str.++  "bdcdacabddcddbadabdcb" A "bdbaddddbcadaacbccdacbc" A "cbacaca" A "dc") ))
(assert (= (str.++  "dc" A "dcbccdbbddcddbcbbcdadbbcbccadd" A "daabcdaddacdada" A "acbcca")  (str.++  "dc" A "dcbccdbbddcddbcbbcdadbbcbccaddabdaabcdaddacdadaabacbcca") ))
(assert (= (str.++  "adbdbccababaadccbdddcbdaa" A "dbdaadcca" A "bdbcbcbaaccdc" A "ccdcad")  (str.++  "adbdbccab" A "aadccbdddcbdaaabdbdaadcca" A "bdbcbcbaaccdc" A "ccdcad") ))
(assert (= (str.++  "adddbcba" A "acdaa" A A "bbabbbbbdc" A A "cbbbacbaaaddb" A "ddaadcdddcd")  (str.++  "adddbcba" A "acdaa" A "abbb" A "bbbbdcab" A "cbbbacbaaaddbabddaadcdddcd") ))
(assert (= (str.++  "addada" A "bcdcdcaccddab" A "cdacdddbdadbadbddaabc" A "cdbdbadcddcda")  (str.++  "addadaabbcdcdcaccdd" A "abcdacdddbdadbadbdda" A "c" A "cdbdbadcddcda") ))
(assert (= (str.++  A "abdadbdabacdccdddcddaccacdcaccddbacdbbddacbdbcaddcbd" A "baa")  (str.++  A A "dadbd" A "acdccdddcddaccacdcaccddbacdbbddacbdbcaddcbd" A "baa") ))
(assert (= (str.++  "cccbbd" A "ccabadbccdacbacbbdbcbbaddacccabdd" A "bb" A "bbdcbbddabad")  (str.++  "cccbbd" A "ccabadbccdacbacbbdbcbbaddacccabdd" A "bb" A "bbdcbbdd" A "ad") ))
(assert (= (str.++  "bbbbacaadcdcadcdccbcdcbd" A "ccbadadaadadbdbbdba" A "cadabdcadcbc")  (str.++  "bbbbacaadcdcadcdccbcdcbdabccbadadaadadbdbbdbaabcadabdcadcbc" "") ))
(assert (= (str.++  A "aabdacbcdcbdcd" A "dbcccdabcdbccacaadacdabadbddadacbdcdcaaad")  (str.++  A "a" A "dacbcdcbdcd" A "dbcccdabcdbccacaadacdabadbddadacbdcdcaaad") ))
(assert (= (str.++  "cdaadbbcbcbbbbabdbacdadbcbbacaddaadbddbdbccabca" A "cbbaaadbcd")  (str.++  "cdaadbbcbcbbbbabdbacdadbcbbacaddaadbddbdbcc" A "ca" A "cbbaaadbcd") ))
(assert (= (str.++  "bdbbccccddcddcbcdbcbcaadaccdbbbbbaabcabcdcbbbb" A "bcddbbbabcc")  (str.++  "bdbbccccddcddcbcdbcbcaadaccdbbbbbaabcabcdcbbbb" A "bcddbbbabcc") ))
(assert (= (str.++  "bcaacbbddcaccdddaadcbccaaddadcccdbccccacdacdadadca" A "addc" A "c")  (str.++  "bcaacbbddcaccdddaadcbccaaddadcccdbccccacdacdadadcaabaddc" A "c") ))
(assert (= (str.++  "ddbccbddbdaacdbaaddaadcdcdcabccccbcbaacaadbbbbbbd" A "adcbcbdd")  (str.++  "ddbccbddbdaacdbaaddaadcdcdcabccccbcbaacaadbbbbbbdabadcbcbdd" "") ))
(assert (= (str.++  "cacabbdaaacadaaddbcaacbddccadcbdcba" A "bacabbcdddadcddddcbdcc")  (str.++  "cac" A "bdaaacadaaddbcaacbddccadcbdcba" A "bac" A "bcdddadcddddcbdcc") ))
(assert (= (str.++  "dcbdaaabbddddbbbbdddbbbcda" A "adbbcbaaacbcacdbdbbbbdadcbadbaa")  (str.++  "dcbdaaabbddddbbbbdddbbbcdaabadbbcbaaacbcacdbdbbbbdadcbadbaa" "") ))
(assert (= (str.++  "dddccbcdadbaddbdca" A "dcdbbcbbccddcddbbaccccacbaa" A "bcbddaddcd")  (str.++  "dddccbcdadbaddbdcaabdcdbbcbbccddcddbbaccccacbaa" A "bcbddaddcd") ))
(assert (= (str.++  "cdcdcdbdbdadabdcbdbdccbadabbadd" A "cdadaacadddad" A "ddcddcadccd")  (str.++  "cdcdcdbdbdadabdcbdbdccbadabbadd" A "cdadaacadddadabddcddcadccd") ))
(assert (= (str.++  "bdcbbabacdacdbbdccbbccccdbaccbcdbbdb" A "daadcdbbaabbd" A "ccdcda")  (str.++  "bdcbbabacdacdbbdccbbccccdbaccbcdbbdbabdaadcdbba" A "bd" A "ccdcda") ))
(assert (= (str.++  "abcbcaaabddb" A "ccdbbacaaaad" A "dddaabdbd" A "bcdc" A "adcccdcdcbcdca")  (str.++  A "cbcaa" A "ddb" A "ccdbbacaaaadabddda" A "dbd" A "bcdc" A "adcccdcdcbcdca") ))
(assert (= (str.++  "adaccacd" A "ddcdaadbcabccccbabaddabdadccadabbbacbbacdaccacccd")  (str.++  "adaccacdabddcdaadbc" A "ccccbabaddabdadccad" A "bbacbbacdaccacccd") ))
(assert (= (str.++  "daddbddcbbaacaaacdadadabcd" A "daccacbcdaacdadcabaaaadbaabcccc")  (str.++  "daddbddcbbaacaaacdadad" A "cd" A "daccacbcdaacdadc" A "aaaadba" A "cccc") ))
(assert (= (str.++  "aabbbacbdcadbaaadc" A "ddbbabb" A "dcccccddddaadaaacdbdaacbddbaca")  (str.++  "aabbbacbdcadbaaadcabddbb" A "babdcccccddddaadaaacdbdaacbddbaca") ))
(assert (= (str.++  "abacbcadabcccdcbbbaacdcdccbbccacdadcccddacbdbbad" A "bbd" A "ddad")  (str.++  "abacbcadabcccdcbbbaacdcdccbbccacdadcccddacbdbbad" A "bbdabddad") ))
(assert (= (str.++  "ccdddbbacbaaacbadaacabbcacdbbbbdbdbcdccddbdbcbdbbcbdaccbcdc" "")  (str.++  "ccdddbbacbaaacbadaac" A "bcacdbbbbdbdbcdccddbdbcbdbbcbdaccbcdc") ))
(assert (= (str.++  "aacdcbadaabddbdbdbbccaabdccadabbcdcbddccddaccacd" A "cbbcddacb")  (str.++  "aacdcbadaabddbdbdbbccaabdccad" A "bcdcbddccddaccacd" A "cbbcddacb") ))
(assert (= (str.++  "cbcacdbad" A "aaddbdc" A "acccccc" A "dddcddbabaabdcbcadcbbaacd" A "bdb")  (str.++  "cbcacdbadabaaddbdcabacccccc" A "dddcddb" A "a" A "dcbcadcbbaacdabbdb") ))
(assert (= (str.++  "bdbabadbccacbaddaabadccacada" A "cbba" A "cbcaadadaacccddccacbbbd")  (str.++  "bdb" A "adbccacbaddaabadccacadaabcbbaabcbcaadadaacccddccacbbbd") ))
(assert (= (str.++  "bbcdacbcaaab" A "cddbdacdbbddaacacaccc" A "adcbddcbcccbddacbcabaa")  (str.++  "bbcdacbcaaab" A "cddbdacdbbddaacacacccabadcbddcbcccbddacbcabaa") ))
(assert (= (str.++  "dacadbbabdc" A "addcbdcccbccaaacdbbccccabcbbcbdcdadcbcbdddbbdb")  (str.++  "dacadbb" A "dc" A "addcbdcccbccaaacdbbccccabcbbcbdcdadcbcbdddbbdb") ))
(assert (= (str.++  "abdbcabbddadaaccddaabcadddccdbcbaccbdac" A "bddcaacdcaadcadbcd")  (str.++  A "dbcabbddadaaccddaabcadddccdbcbaccbdacabbddcaacdcaadcadbcd" "") ))
(assert (= (str.++  "bbacddda" A "dcacacbbbcbbdbbccbcaadbccdabcaacaacddcbbda" A "cddad")  (str.++  "bbacddda" A "dcacacbbbcbbdbbccbcaadbccd" A "caacaacddcbbdaabcddad") ))
(assert (= (str.++  A "bcdaaadcdacdccdbacbcbcbabacddddbaddcdaabadaa" A "bacdbaddabc")  (str.++  "abbcdaaadcdacdccdbacbcbcbabacddddbaddcdaabadaa" A "bacdbadd" A "c") ))
(assert (= (str.++  "ccaddcaddccddcaacddbabdacdcabbbbbcdcabaacdbccdccdbdcdbd" A "bd")  (str.++  "ccaddcaddccddcaacddb" A "dacdcabbbbbcdc" A "aacdbccdccdbdcdbdabbd") ))
(assert (= (str.++  "dcbdcdddbcbaaaddacacbdc" A "adacbaacdaabbccab" A "dbbdabccddacdbb")  (str.++  "dcbdcdddbcbaaaddacacbdc" A "adacbaacda" A "bcc" A A "dbbdabccddacdbb") ))
(assert (= (str.++  "cddbacdcccabdd" A "cdcabdaccac" A "abdaccccbcacabaaadbadbd" A "aaaaa")  (str.++  "cddbacdcccabdd" A "cdcabdaccacab" A "daccccbcacabaaadbadbdabaaaaa") ))
(assert (= (str.++  "ccbbabdddcbcad" A "bcdbddcbcbdddbaabdbaaacbdbaacaa" A "aaccdcccba")  (str.++  "ccbbabdddcbcadabbcdbddcbcbdddbaabdbaaacbdbaacaaabaaccdcccba" "") ))
(assert (= (str.++  "cbbdadabdacbadadbbcaad" A "bdbadccaadacab" A "ddbcdacdcaddbbaaccb")  (str.++  "cbbdadabdacbadadbbcaad" A "bdbadccaadac" A A "ddbcdacdcaddbbaaccb") ))
(assert (= (str.++  "cddcdacb" A "acaddacacccbdab" A "bccddccadbcaaadbd" A "daccbaabcaccc")  (str.++  "cddcdacbabacaddacacccbdab" A "bccddccadbcaaadbdabdaccbaabcaccc") ))
(assert (= (str.++  "dc" A "cdcacadcbdaabcbdacbddabcaad" A "dacbdddcacbdadcadbbdbba" A "d")  (str.++  "dc" A "cdcacadcbdaabcbdacbddabcaadabdacbdddcacbdadcadbbdbbaabd") ))
(assert (= (str.++  "d" A "bcbcdcdcadcdddcacdcdaaacddcccccddcbbccaaabaadcddcaadbaac")  (str.++  "dabbcbcdcdcadcdddcacdcdaaacddcccccddcbbccaaabaadcddcaadbaac" "") ))
(assert (= (str.++  "adcbaddaacabdbabaacdadbcacadc" A "dddacbb" A "d" A "baabdcbabbbbbcdd")  (str.++  "adcbaddaac" A "db" A "aacdadbcacadcabdddacbb" A "dabba" A "dcb" A "bbbbcdd") ))
(assert (= (str.++  "cbbadddccddabab" A "bdbacdbdbacddacadbbdbcdbddaccdddabdadccbac")  (str.++  "cbbadddccddab" A A "bdbacdbdbacddacadbbdbcdbddaccddd" A "dadccbac") ))
(assert (= (str.++  "dbcdaabcdbddddbcacaccdcdacdbbdadcaadddbbbbcadbaabca" A "baadaa")  (str.++  "dbcdaabcdbddddbcacaccdcdacdbbdadcaadddbbbbcadbaabca" A "baadaa") ))
(assert (= (str.++  "cacdccbcbcdddcdcddabdabbccdadbadddacddcadacdddba" A "badcbaaba")  (str.++  "cacdccbcbcdddcdcddabdabbccdadbadddacddcadacdddbaabbadcba" A "a") ))
(assert (= (str.++  "dcdaaadaccbadadacacccccbbabacaddc" A "cacdda" A "daddcaaadbacabac")  (str.++  "dcdaaadaccbadadacacccccbb" A "acaddc" A "cacddaabdaddcaaadbac" A "ac") ))
(assert (= (str.++  "cbadbabdddbdcccdbdbdcbbacdbddacacdacbdadadddbabdddc" A "ccc" A "d")  (str.++  "cbadb" A "dddbdcccdbdbdcbbacdbddacacdacbdadadddbabdddcabccc" A "d") ))
(assert (= (str.++  "cbddcdaddbaadbcb" A "cbbbbdccbdd" A "cdccb" A "ccdabdddaccdbcddccbcb")  (str.++  "cbddcdaddbaadbcb" A "cbbbbdccbddabcdccb" A "ccd" A "dddaccdbcddccbcb") ))
(assert (= (str.++  "cccaaaccbacacdbbbdbbdccbbbdbddadcda" A "dbadadaa" A "adabcbbcadda")  (str.++  "cccaaaccbacacdbbbdbbdccbbbdbddadcdaabdbadadaaabadabcbbcadda" "") ))
(assert (= (str.++  "dcbbdcccadccccabcddaabacaccacaacbccbcb" A "dbdbccadbcad" A "bdbba")  (str.++  "dcbbdcccadcccc" A "cddaabacaccacaacbccbcbabdbdbccadbcadabbdbba") ))
(assert (= (str.++  "bdbbacdacacbbdd" A "cdca" A "badcdccd" A "addbcbacddbadbdaddbbddcddb")  (str.++  "bdbbacdacacbbdd" A "cdca" A "badcdccdabaddbcbacddbadbdaddbbddcddb") ))
(assert (= (str.++  "bacdccbdbcbbbaccbccbccbacddcdccaadcccabca" A "aacdadbcdccadbbc")  (str.++  "bacdccbdbcbbbaccbccbccbacddcdccaadccc" A "ca" A "aacdadbcdccadbbc") ))
(assert (= (str.++  "bccb" A "dcdac" A "ddaadbdabaacbdcdbcbaaaccddcccbdddcdadcdbcdbaba")  (str.++  "bccb" A "dcdac" A "ddaadbdabaacbdcdbcbaaaccddcccbdddcdadcdbcdbaba") ))
(check-sat)
(get-model)
